c Circuit verification problem 05
c State machine verification
c Generated for hardware verification benchmarking
c Variables: 150, Clauses: 580
p cnf 150 580
1 -2 -3 0
2 3 -4 0
4 5 -6 0
-1 6 7 0
-2 -5 8 0
3 -7 -8 0
9 10 -11 0
-9 11 12 0
10 -12 13 0
-10 -13 14 0
11 14 -15 0
-11 15 16 0
17 -18 19 0
-17 18 -20 0
19 20 21 0
-19 -21 22 0
18 -22 23 0
-18 23 -24 0
25 26 -27 0
-25 27 28 0
26 -28 29 0
-26 -29 30 0
27 30 -31 0
-27 31 32 0
33 -34 35 0
-33 34 -36 0
35 36 37 0
-35 -37 38 0
34 -38 39 0
-34 39 -40 0
41 42 -43 0
-41 43 44 0
42 -44 45 0
-42 -45 46 0
43 46 -47 0
-43 47 48 0
49 -50 51 0
-49 50 -52 0
51 52 53 0
-51 -53 54 0
50 -54 55 0
-50 55 -56 0
57 58 -59 0
-57 59 60 0
58 -60 61 0
-58 -61 62 0
59 62 -63 0
-59 63 64 0
65 -66 67 0
-65 66 -68 0
67 68 69 0
-67 -69 70 0
66 -70 71 0
-66 71 -72 0
73 74 -75 0
-73 75 76 0
74 -76 77 0
-74 -77 78 0
75 78 -79 0
-75 79 80 0
81 -82 83 0
-81 82 -84 0
83 84 85 0
-83 -85 86 0
82 -86 87 0
-82 87 -88 0
89 90 -91 0
-89 91 92 0
90 -92 93 0
-90 -93 94 0
91 94 -95 0
-91 95 96 0
97 -98 99 0
-97 98 -100 0
99 100 101 0
-99 -101 102 0
98 -102 103 0
-98 103 -104 0
105 106 -107 0
-105 107 108 0
106 -108 109 0
-106 -109 110 0
107 110 -111 0
-107 111 112 0
113 -114 115 0
-113 114 -116 0
115 116 117 0
-115 -117 118 0
114 -118 119 0
-114 119 -120 0
121 122 -123 0
-121 123 124 0
122 -124 125 0
-122 -125 126 0
123 126 -127 0
-123 127 128 0
129 -130 131 0
-129 130 -132 0
131 132 133 0
-131 -133 134 0
130 -134 135 0
-130 135 -136 0
137 138 -139 0
-137 139 140 0
138 -140 141 0
-138 -141 142 0
139 142 -143 0
-139 143 144 0
145 -146 147 0
-145 146 -148 0
147 148 149 0
-147 -149 150 0
146 -150 1 0
-146 1 -2 0
1 5 9 13 0
-1 -5 -9 -13 0
2 6 10 14 0
-2 -6 -10 -14 0
3 7 11 15 0
-3 -7 -11 -15 0
4 8 12 16 0
-4 -8 -12 -16 0
17 21 25 29 0
-17 -21 -25 -29 0
18 22 26 30 0
-18 -22 -26 -30 0
19 23 27 31 0
-19 -23 -27 -31 0
20 24 28 32 0
-20 -24 -28 -32 0
33 37 41 45 0
-33 -37 -41 -45 0
34 38 42 46 0
-34 -38 -42 -46 0
35 39 43 47 0
-35 -39 -43 -47 0
36 40 44 48 0
-36 -40 -44 -48 0
49 53 57 61 0
-49 -53 -57 -61 0
50 54 58 62 0
-50 -54 -58 -62 0
51 55 59 63 0
-51 -55 -59 -63 0
52 56 60 64 0
-52 -56 -60 -64 0
65 69 73 77 0
-65 -69 -73 -77 0
66 70 74 78 0
-66 -70 -74 -78 0
67 71 75 79 0
-67 -71 -75 -79 0
68 72 76 80 0
-68 -72 -76 -80 0
81 85 89 93 0
-81 -85 -89 -93 0
82 86 90 94 0
-82 -86 -90 -94 0
83 87 91 95 0
-83 -87 -91 -95 0
84 88 92 96 0
-84 -88 -92 -96 0
97 101 105 109 0
-97 -101 -105 -109 0
98 102 106 110 0
-98 -102 -106 -110 0
99 103 107 111 0
-99 -103 -107 -111 0
100 104 108 112 0
-100 -104 -108 -112 0
113 117 121 125 0
-113 -117 -121 -125 0
114 118 122 126 0
-114 -118 -122 -126 0
115 119 123 127 0
-115 -119 -123 -127 0
116 120 124 128 0
-116 -120 -124 -128 0
129 133 137 141 0
-129 -133 -137 -141 0
130 134 138 142 0
-130 -134 -138 -142 0
131 135 139 143 0
-131 -135 -139 -143 0
132 136 140 144 0
-132 -136 -140 -144 0
145 149 1 5 0
-145 -149 -1 -5 0
146 150 2 6 0
-146 -150 -2 -6 0
147 1 3 7 0
-147 -1 -3 -7 0
148 2 4 8 0
-148 -2 -4 -8 0
1 9 17 25 33 0
-1 -9 -17 -25 -33 0
2 10 18 26 34 0
-2 -10 -18 -26 -34 0
3 11 19 27 35 0
-3 -11 -19 -27 -35 0
4 12 20 28 36 0
-4 -12 -20 -28 -36 0
5 13 21 29 37 0
-5 -13 -21 -29 -37 0
6 14 22 30 38 0
-6 -14 -22 -30 -38 0
7 15 23 31 39 0
-7 -15 -23 -31 -39 0
8 16 24 32 40 0
-8 -16 -24 -32 -40 0
41 49 57 65 73 0
-41 -49 -57 -65 -73 0
42 50 58 66 74 0
-42 -50 -58 -66 -74 0
43 51 59 67 75 0
-43 -51 -59 -67 -75 0
44 52 60 68 76 0
-44 -52 -60 -68 -76 0
45 53 61 69 77 0
-45 -53 -61 -69 -77 0
46 54 62 70 78 0
-46 -54 -62 -70 -78 0
47 55 63 71 79 0
-47 -55 -63 -71 -79 0
48 56 64 72 80 0
-48 -56 -64 -72 -80 0
81 89 97 105 113 0
-81 -89 -97 -105 -113 0
82 90 98 106 114 0
-82 -90 -98 -106 -114 0
83 91 99 107 115 0
-83 -91 -99 -107 -115 0
84 92 100 108 116 0
-84 -92 -100 -108 -116 0
85 93 101 109 117 0
-85 -93 -101 -109 -117 0
86 94 102 110 118 0
-86 -94 -102 -110 -118 0
87 95 103 111 119 0
-87 -95 -103 -111 -119 0
88 96 104 112 120 0
-88 -96 -104 -112 -120 0
121 129 137 145 1 0
-121 -129 -137 -145 -1 0
122 130 138 146 2 0
-122 -130 -138 -146 -2 0
123 131 139 147 3 0
-123 -131 -139 -147 -3 0
124 132 140 148 4 0
-124 -132 -140 -148 -4 0
125 133 141 149 5 0
-125 -133 -141 -149 -5 0
126 134 142 150 6 0
-126 -134 -142 -150 -6 0
127 135 143 1 7 0
-127 -135 -143 -1 -7 0
128 136 144 2 8 0
-128 -136 -144 -2 -8 0
1 17 33 49 65 81 0
-1 -17 -33 -49 -65 -81 0
2 18 34 50 66 82 0
-2 -18 -34 -50 -66 -82 0
3 19 35 51 67 83 0
-3 -19 -35 -51 -67 -83 0
4 20 36 52 68 84 0
-4 -20 -36 -52 -68 -84 0
5 21 37 53 69 85 0
-5 -21 -37 -53 -69 -85 0
6 22 38 54 70 86 0
-6 -22 -38 -54 -70 -86 0
7 23 39 55 71 87 0
-7 -23 -39 -55 -71 -87 0
8 24 40 56 72 88 0
-8 -24 -40 -56 -72 -88 0
9 25 41 57 73 89 0
-9 -25 -41 -57 -73 -89 0
10 26 42 58 74 90 0
-10 -26 -42 -58 -74 -90 0
11 27 43 59 75 91 0
-11 -27 -43 -59 -75 -91 0
12 28 44 60 76 92 0
-12 -28 -44 -60 -76 -92 0
13 29 45 61 77 93 0
-13 -29 -45 -61 -77 -93 0
14 30 46 62 78 94 0
-14 -30 -46 -62 -78 -94 0
15 31 47 63 79 95 0
-15 -31 -47 -63 -79 -95 0
16 32 48 64 80 96 0
-16 -32 -48 -64 -80 -96 0
97 113 129 145 1 0
-97 -113 -129 -145 -1 0
98 114 130 146 2 0
-98 -114 -130 -146 -2 0
99 115 131 147 3 0
-99 -115 -131 -147 -3 0
100 116 132 148 4 0
-100 -116 -132 -148 -4 0
101 117 133 149 5 0
-101 -117 -133 -149 -5 0
102 118 134 150 6 0
-102 -118 -134 -150 -6 0
103 119 135 1 7 0
-103 -119 -135 -1 -7 0
104 120 136 2 8 0
-104 -120 -136 -2 -8 0
105 121 137 3 9 0
-105 -121 -137 -3 -9 0
106 122 138 4 10 0
-106 -122 -138 -4 -10 0
107 123 139 5 11 0
-107 -123 -139 -5 -11 0
108 124 140 6 12 0
-108 -124 -140 -6 -12 0
109 125 141 7 13 0
-109 -125 -141 -7 -13 0
110 126 142 8 14 0
-110 -126 -142 -8 -14 0
111 127 143 9 15 0
-111 -127 -143 -9 -15 0
112 128 144 10 16 0
-112 -128 -144 -10 -16 0
1 2 3 4 5 6 7 8 0
9 10 11 12 13 14 15 16 0
17 18 19 20 21 22 23 24 0
25 26 27 28 29 30 31 32 0
33 34 35 36 37 38 39 40 0
41 42 43 44 45 46 47 48 0
49 50 51 52 53 54 55 56 0
57 58 59 60 61 62 63 64 0
65 66 67 68 69 70 71 72 0
73 74 75 76 77 78 79 80 0
81 82 83 84 85 86 87 88 0
89 90 91 92 93 94 95 96 0
97 98 99 100 101 102 103 104 0
105 106 107 108 109 110 111 112 0
113 114 115 116 117 118 119 120 0
121 122 123 124 125 126 127 128 0
129 130 131 132 133 134 135 136 0
137 138 139 140 141 142 143 144 0
145 146 147 148 149 150 1 2 0
-1 -2 -3 -4 -5 -6 -7 -8 0
-9 -10 -11 -12 -13 -14 -15 -16 0
-17 -18 -19 -20 -21 -22 -23 -24 0
-25 -26 -27 -28 -29 -30 -31 -32 0
-33 -34 -35 -36 -37 -38 -39 -40 0
-41 -42 -43 -44 -45 -46 -47 -48 0
-49 -50 -51 -52 -53 -54 -55 -56 0
-57 -58 -59 -60 -61 -62 -63 -64 0
-65 -66 -67 -68 -69 -70 -71 -72 0
-73 -74 -75 -76 -77 -78 -79 -80 0
-81 -82 -83 -84 -85 -86 -87 -88 0
-89 -90 -91 -92 -93 -94 -95 -96 0
-97 -98 -99 -100 -101 -102 -103 -104 0
-105 -106 -107 -108 -109 -110 -111 -112 0
-113 -114 -115 -116 -117 -118 -119 -120 0
-121 -122 -123 -124 -125 -126 -127 -128 0
-129 -130 -131 -132 -133 -134 -135 -136 0
-137 -138 -139 -140 -141 -142 -143 -144 0
-145 -146 -147 -148 -149 -150 -1 -2 0
1 -17 33 -49 65 -81 97 0
-1 17 -33 49 -65 81 -97 0
2 -18 34 -50 66 -82 98 0
-2 18 -34 50 -66 82 -98 0
3 -19 35 -51 67 -83 99 0
-3 19 -35 51 -67 83 -99 0
4 -20 36 -52 68 -84 100 0
-4 20 -36 52 -68 84 -100 0
5 -21 37 -53 69 -85 101 0
-5 21 -37 53 -69 85 -101 0
6 -22 38 -54 70 -86 102 0
-6 22 -38 54 -70 86 -102 0
7 -23 39 -55 71 -87 103 0
-7 23 -39 55 -71 87 -103 0
8 -24 40 -56 72 -88 104 0
-8 24 -40 56 -72 88 -104 0
9 -25 41 -57 73 -89 105 0
-9 25 -41 57 -73 89 -105 0
10 -26 42 -58 74 -90 106 0
-10 26 -42 58 -74 90 -106 0
11 -27 43 -59 75 -91 107 0
-11 27 -43 59 -75 91 -107 0
12 -28 44 -60 76 -92 108 0
-12 28 -44 60 -76 92 -108 0
13 -29 45 -61 77 -93 109 0
-13 29 -45 61 -77 93 -109 0
14 -30 46 -62 78 -94 110 0
-14 30 -46 62 -78 94 -110 0
15 -31 47 -63 79 -95 111 0
-15 31 -47 63 -79 95 -111 0
16 -32 48 -64 80 -96 112 0
-16 32 -48 64 -80 96 -112 0
113 -129 145 -1 17 -33 0
-113 129 -145 1 -17 33 0
114 -130 146 -2 18 -34 0
-114 130 -146 2 -18 34 0
115 -131 147 -3 19 -35 0
-115 131 -147 3 -19 35 0
116 -132 148 -4 20 -36 0
-116 132 -148 4 -20 36 0
117 -133 149 -5 21 -37 0
-117 133 -149 5 -21 37 0
118 -134 150 -6 22 -38 0
-118 134 -150 6 -22 38 0
119 -135 1 -7 23 -39 0
-119 135 -1 7 -23 39 0
120 -136 2 -8 24 -40 0
-120 136 -2 8 -24 40 0
121 -137 3 -9 25 -41 0
-121 137 -3 9 -25 41 0
122 -138 4 -10 26 -42 0
-122 138 -4 10 -26 42 0
123 -139 5 -11 27 -43 0
-123 139 -5 11 -27 43 0
124 -140 6 -12 28 -44 0
-124 140 -6 12 -28 44 0
125 -141 7 -13 29 -45 0
-125 141 -7 13 -29 45 0
126 -142 8 -14 30 -46 0
-126 142 -8 14 -30 46 0
127 -143 9 -15 31 -47 0
-127 143 -9 15 -31 47 0
128 -144 10 -16 32 -48 0
-128 144 -10 16 -32 48 0
49 65 81 97 113 129 0
-49 -65 -81 -97 -113 -129 0
50 66 82 98 114 130 0
-50 -66 -82 -98 -114 -130 0
51 67 83 99 115 131 0
-51 -67 -83 -99 -115 -131 0
52 68 84 100 116 132 0
-52 -68 -84 -100 -116 -132 0
53 69 85 101 117 133 0
-53 -69 -85 -101 -117 -133 0
54 70 86 102 118 134 0
-54 -70 -86 -102 -118 -134 0
55 71 87 103 119 135 0
-55 -71 -87 -103 -119 -135 0
56 72 88 104 120 136 0
-56 -72 -88 -104 -120 -136 0
57 73 89 105 121 137 0
-57 -73 -89 -105 -121 -137 0
58 74 90 106 122 138 0
-58 -74 -90 -106 -122 -138 0
59 75 91 107 123 139 0
-59 -75 -91 -107 -123 -139 0
60 76 92 108 124 140 0
-60 -76 -92 -108 -124 -140 0
61 77 93 109 125 141 0
-61 -77 -93 -109 -125 -141 0
62 78 94 110 126 142 0
-62 -78 -94 -110 -126 -142 0
63 79 95 111 127 143 0
-63 -79 -95 -111 -127 -143 0
64 80 96 112 128 144 0
-64 -80 -96 -112 -128 -144 0
145 1 17 33 49 65 0
-145 -1 -17 -33 -49 -65 0
146 2 18 34 50 66 0
-146 -2 -18 -34 -50 -66 0
147 3 19 35 51 67 0
-147 -3 -19 -35 -51 -67 0
148 4 20 36 52 68 0
-148 -4 -20 -36 -52 -68 0
149 5 21 37 53 69 0
-149 -5 -21 -37 -53 -69 0
150 6 22 38 54 70 0
-150 -6 -22 -38 -54 -70 0